\ENCODING=ISO-8859-1
\Problem name: ilog.cplex

Minimize
 obj: x1 + x2 + x3 + x4 + x5 + x6 + x7 + x8 + x9 + x10 + x11 + x12 + x13 + x14
      + x15 + x16 + x17 + x18 + x19 + x20 + x21 + x22 + x23 + x24 + x25 + x26
      + x27 + x28 + x29 + x30 + x31 + x32 + x33 + x34 + x35 + x36 + x37 + x38
      + x39 + x40 + x41 + x42 + x43 + x44 + x45 + x46 + x47 + x48 + x49 + x50
      + x51 + x52 + x53 + x54 + x55 + x56 + x57 + x58 + x59 + x60 + x61 + x62
      + x63 + x64 + x65 + x66 + x67 + x68 + x69 + x70 + x71 + x72 + x73 + x74
      + x75 + x76 + x77 + x78 + x79 + x80 + x81 + x82 + x83 + x84 + x85 + x86
      + x87 + x88 + x89 + x90 + x91 + x92 + x93 + x94 + x95 + x96 + x97 + x98
      + x99 + x100 + x101 + x102 + x103 + x104 + x105 + x106 + x107 + x108
      + x109 + x110 + x111 + x112 + x113 + x114 + x115 + x116 + x117 + x118
      + x119 + x120 + x121 + x122 + x123 + x124 + x125 + x126 + x127 + x128
      + x129 + x130 + x131 + x132 + x133 + x134 + x135 + x136 + x137 + x138
      + x139 + x140 + x141 + x142 + x143 + x144 + x145 + x146 + x147 + x148
Subject To
 c1:   x149 + x150 + x151 + x152 + x153 + x154 + x155 + x156 + x157 + x158
       + x159 + x160 + x161 + x162 + x163 + x164 + x165 + x166 + x167 + x168
       + x169 + x170 + x171 + x172 + x173 + x174 + x175 + x176 + x177 + x178
       + x179 + x180 + x181 + x182 + x183 + x184 + x185 + x186 + x187 + x188
       + x189 + x190 + x191 + x192 + x193 + x194 + x195 + x196 + x197 + x198
       + x199 + x200 + x201 + x202 + x203 + x204 + x205 + x206 + x207 + x208
       + x209 + x210 + x211 + x212 + x213 + x214 + x215 + x216 + x217 + x218
       + x219 + x220 + x221 + x222 + x223 + x224 + x225 + x226 + x227 + x228
       + x229 + x230 + x231 + x232 + x233 + x234 + x235 + x236 + x237 + x238
       + x239 + x240 + x241 + x242 + x243 + x244 + x245 + x246 + x247 + x248
       + x249 + x250 + x251 + x252 + x253 + x254 + x255 + x256 + x257 + x258
       + x259 + x260 + x261 + x262 + x263 + x264 + x265 + x266 + x267 + x268
       + x269 + x270 + x271 + x272 + x273 + x274 + x275 + x276 + x277 + x278
       + x279 + x280 + x281 + x282 + x283 + x284 + x285 + x286 + x287 + x288
       + x289 + x290 + x291 + x292 + x293 + x294 + x295 + x296  = 50
 c2:   x297 + x298 + x299 + x300 + x301 + x302 + x303 + x304 + x305 + x306
       + x307 + x308 + x309 + x310 + x311 + x312 + x313 + x314 + x315 + x316
       + x317 + x318 + x319 + x320 + x321 + x322 + x323 + x324 + x325 + x326
       + x327 + x328 + x329 + x330 + x331 + x332 + x333 + x334 + x335 + x336
       + x337 + x338 + x339 + x340 + x341 + x342 + x343 + x344 + x345 + x346
       + x347 + x348 + x349 + x350 + x351 + x352 + x353 + x354 + x355 + x356
       + x357 + x358 + x359 + x360 + x361 + x362 + x363 + x364 + x365 + x366
       + x367 + x368 + x369 + x370 + x371 + x372 + x373 + x374 + x375 + x376
       + x377 + x378 + x379 + x380 + x381 + x382 + x383 + x384 + x385 + x386
       + x387 + x388 + x389 + x390 + x391 + x392 + x393 + x394 + x395 + x396
       + x397 + x398 + x399 + x400 + x401 + x402 + x403 + x404 + x405 + x406
       + x407 + x408 + x409 + x410 + x411 + x412 + x413 + x414 + x415 + x416
       + x417 + x418 + x419 + x420 + x421 + x422 + x423 + x424 + x425 + x426
       + x427 + x428 + x429 + x430 + x431 + x432 + x433 + x434 + x435 + x436
       + x437 + x438 + x439 + x440 + x441 + x442 + x443 + x444  = 36
 c3:   x445 + x446 + x447 + x448 + x449 + x450 + x451 + x452 + x453 + x454
       + x455 + x456 + x457 + x458 + x459 + x460 + x461 + x462 + x463 + x464
       + x465 + x466 + x467 + x468 + x469 + x470 + x471 + x472 + x473 + x474
       + x475 + x476 + x477 + x478 + x479 + x480 + x481 + x482 + x483 + x484
       + x485 + x486 + x487 + x488 + x489 + x490 + x491 + x492 + x493 + x494
       + x495 + x496 + x497 + x498 + x499 + x500 + x501 + x502 + x503 + x504
       + x505 + x506 + x507 + x508 + x509 + x510 + x511 + x512 + x513 + x514
       + x515 + x516 + x517 + x518 + x519 + x520 + x521 + x522 + x523 + x524
       + x525 + x526 + x527 + x528 + x529 + x530 + x531 + x532 + x533 + x534
       + x535 + x536 + x537 + x538 + x539 + x540 + x541 + x542 + x543 + x544
       + x545 + x546 + x547 + x548 + x549 + x550 + x551 + x552 + x553 + x554
       + x555 + x556 + x557 + x558 + x559 + x560 + x561 + x562 + x563 + x564
       + x565 + x566 + x567 + x568 + x569 + x570 + x571 + x572 + x573 + x574
       + x575 + x576 + x577 + x578 + x579 + x580 + x581 + x582 + x583 + x584
       + x585 + x586 + x587 + x588 + x589 + x590 + x591 + x592  = 24
 c4:   x593 + x594 + x595 + x596 + x597 + x598 + x599 + x600 + x601 + x602
       + x603 + x604 + x605 + x606 + x607 + x608 + x609 + x610 + x611 + x612
       + x613 + x614 + x615 + x616 + x617 + x618 + x619 + x620 + x621 + x622
       + x623 + x624 + x625 + x626 + x627 + x628 + x629 + x630 + x631 + x632
       + x633 + x634 + x635 + x636 + x637 + x638 + x639 + x640 + x641 + x642
       + x643 + x644 + x645 + x646 + x647 + x648 + x649 + x650 + x651 + x652
       + x653 + x654 + x655 + x656 + x657 + x658 + x659 + x660 + x661 + x662
       + x663 + x664 + x665 + x666 + x667 + x668 + x669 + x670 + x671 + x672
       + x673 + x674 + x675 + x676 + x677 + x678 + x679 + x680 + x681 + x682
       + x683 + x684 + x685 + x686 + x687 + x688 + x689 + x690 + x691 + x692
       + x693 + x694 + x695 + x696 + x697 + x698 + x699 + x700 + x701 + x702
       + x703 + x704 + x705 + x706 + x707 + x708 + x709 + x710 + x711 + x712
       + x713 + x714 + x715 + x716 + x717 + x718 + x719 + x720 + x721 + x722
       + x723 + x724 + x725 + x726 + x727 + x728 + x729 + x730 + x731 + x732
       + x733 + x734 + x735 + x736 + x737 + x738 + x739 + x740  = 8
 c5:   x741 + x742 + x743 + x744 + x745 + x746 + x747 + x748 + x749 + x750
       + x751 + x752 + x753 + x754 + x755 + x756 + x757 + x758 + x759 + x760
       + x761 + x762 + x763 + x764 + x765 + x766 + x767 + x768 + x769 + x770
       + x771 + x772 + x773 + x774 + x775 + x776 + x777 + x778 + x779 + x780
       + x781 + x782 + x783 + x784 + x785 + x786 + x787 + x788 + x789 + x790
       + x791 + x792 + x793 + x794 + x795 + x796 + x797 + x798 + x799 + x800
       + x801 + x802 + x803 + x804 + x805 + x806 + x807 + x808 + x809 + x810
       + x811 + x812 + x813 + x814 + x815 + x816 + x817 + x818 + x819 + x820
       + x821 + x822 + x823 + x824 + x825 + x826 + x827 + x828 + x829 + x830
       + x831 + x832 + x833 + x834 + x835 + x836 + x837 + x838 + x839 + x840
       + x841 + x842 + x843 + x844 + x845 + x846 + x847 + x848 + x849 + x850
       + x851 + x852 + x853 + x854 + x855 + x856 + x857 + x858 + x859 + x860
       + x861 + x862 + x863 + x864 + x865 + x866 + x867 + x868 + x869 + x870
       + x871 + x872 + x873 + x874 + x875 + x876 + x877 + x878 + x879 + x880
       + x881 + x882 + x883 + x884 + x885 + x886 + x887 + x888  = 30
 c6:   - 115 x1 + 25 x149 + 40 x297 + 50 x445 + 55 x593 + 70 x741 <= 0
 c7:   - 115 x2 + 25 x150 + 40 x298 + 50 x446 + 55 x594 + 70 x742 <= 0
 c8:   - 115 x3 + 25 x151 + 40 x299 + 50 x447 + 55 x595 + 70 x743 <= 0
 c9:   - 115 x4 + 25 x152 + 40 x300 + 50 x448 + 55 x596 + 70 x744 <= 0
 c10:  - 115 x5 + 25 x153 + 40 x301 + 50 x449 + 55 x597 + 70 x745 <= 0
 c11:  - 115 x6 + 25 x154 + 40 x302 + 50 x450 + 55 x598 + 70 x746 <= 0
 c12:  - 115 x7 + 25 x155 + 40 x303 + 50 x451 + 55 x599 + 70 x747 <= 0
 c13:  - 115 x8 + 25 x156 + 40 x304 + 50 x452 + 55 x600 + 70 x748 <= 0
 c14:  - 115 x9 + 25 x157 + 40 x305 + 50 x453 + 55 x601 + 70 x749 <= 0
 c15:  - 115 x10 + 25 x158 + 40 x306 + 50 x454 + 55 x602 + 70 x750 <= 0
 c16:  - 115 x11 + 25 x159 + 40 x307 + 50 x455 + 55 x603 + 70 x751 <= 0
 c17:  - 115 x12 + 25 x160 + 40 x308 + 50 x456 + 55 x604 + 70 x752 <= 0
 c18:  - 115 x13 + 25 x161 + 40 x309 + 50 x457 + 55 x605 + 70 x753 <= 0
 c19:  - 115 x14 + 25 x162 + 40 x310 + 50 x458 + 55 x606 + 70 x754 <= 0
 c20:  - 115 x15 + 25 x163 + 40 x311 + 50 x459 + 55 x607 + 70 x755 <= 0
 c21:  - 115 x16 + 25 x164 + 40 x312 + 50 x460 + 55 x608 + 70 x756 <= 0
 c22:  - 115 x17 + 25 x165 + 40 x313 + 50 x461 + 55 x609 + 70 x757 <= 0
 c23:  - 115 x18 + 25 x166 + 40 x314 + 50 x462 + 55 x610 + 70 x758 <= 0
 c24:  - 115 x19 + 25 x167 + 40 x315 + 50 x463 + 55 x611 + 70 x759 <= 0
 c25:  - 115 x20 + 25 x168 + 40 x316 + 50 x464 + 55 x612 + 70 x760 <= 0
 c26:  - 115 x21 + 25 x169 + 40 x317 + 50 x465 + 55 x613 + 70 x761 <= 0
 c27:  - 115 x22 + 25 x170 + 40 x318 + 50 x466 + 55 x614 + 70 x762 <= 0
 c28:  - 115 x23 + 25 x171 + 40 x319 + 50 x467 + 55 x615 + 70 x763 <= 0
 c29:  - 115 x24 + 25 x172 + 40 x320 + 50 x468 + 55 x616 + 70 x764 <= 0
 c30:  - 115 x25 + 25 x173 + 40 x321 + 50 x469 + 55 x617 + 70 x765 <= 0
 c31:  - 115 x26 + 25 x174 + 40 x322 + 50 x470 + 55 x618 + 70 x766 <= 0
 c32:  - 115 x27 + 25 x175 + 40 x323 + 50 x471 + 55 x619 + 70 x767 <= 0
 c33:  - 115 x28 + 25 x176 + 40 x324 + 50 x472 + 55 x620 + 70 x768 <= 0
 c34:  - 115 x29 + 25 x177 + 40 x325 + 50 x473 + 55 x621 + 70 x769 <= 0
 c35:  - 115 x30 + 25 x178 + 40 x326 + 50 x474 + 55 x622 + 70 x770 <= 0
 c36:  - 115 x31 + 25 x179 + 40 x327 + 50 x475 + 55 x623 + 70 x771 <= 0
 c37:  - 115 x32 + 25 x180 + 40 x328 + 50 x476 + 55 x624 + 70 x772 <= 0
 c38:  - 115 x33 + 25 x181 + 40 x329 + 50 x477 + 55 x625 + 70 x773 <= 0
 c39:  - 115 x34 + 25 x182 + 40 x330 + 50 x478 + 55 x626 + 70 x774 <= 0
 c40:  - 115 x35 + 25 x183 + 40 x331 + 50 x479 + 55 x627 + 70 x775 <= 0
 c41:  - 115 x36 + 25 x184 + 40 x332 + 50 x480 + 55 x628 + 70 x776 <= 0
 c42:  - 115 x37 + 25 x185 + 40 x333 + 50 x481 + 55 x629 + 70 x777 <= 0
 c43:  - 115 x38 + 25 x186 + 40 x334 + 50 x482 + 55 x630 + 70 x778 <= 0
 c44:  - 115 x39 + 25 x187 + 40 x335 + 50 x483 + 55 x631 + 70 x779 <= 0
 c45:  - 115 x40 + 25 x188 + 40 x336 + 50 x484 + 55 x632 + 70 x780 <= 0
 c46:  - 115 x41 + 25 x189 + 40 x337 + 50 x485 + 55 x633 + 70 x781 <= 0
 c47:  - 115 x42 + 25 x190 + 40 x338 + 50 x486 + 55 x634 + 70 x782 <= 0
 c48:  - 115 x43 + 25 x191 + 40 x339 + 50 x487 + 55 x635 + 70 x783 <= 0
 c49:  - 115 x44 + 25 x192 + 40 x340 + 50 x488 + 55 x636 + 70 x784 <= 0
 c50:  - 115 x45 + 25 x193 + 40 x341 + 50 x489 + 55 x637 + 70 x785 <= 0
 c51:  - 115 x46 + 25 x194 + 40 x342 + 50 x490 + 55 x638 + 70 x786 <= 0
 c52:  - 115 x47 + 25 x195 + 40 x343 + 50 x491 + 55 x639 + 70 x787 <= 0
 c53:  - 115 x48 + 25 x196 + 40 x344 + 50 x492 + 55 x640 + 70 x788 <= 0
 c54:  - 115 x49 + 25 x197 + 40 x345 + 50 x493 + 55 x641 + 70 x789 <= 0
 c55:  - 115 x50 + 25 x198 + 40 x346 + 50 x494 + 55 x642 + 70 x790 <= 0
 c56:  - 115 x51 + 25 x199 + 40 x347 + 50 x495 + 55 x643 + 70 x791 <= 0
 c57:  - 115 x52 + 25 x200 + 40 x348 + 50 x496 + 55 x644 + 70 x792 <= 0
 c58:  - 115 x53 + 25 x201 + 40 x349 + 50 x497 + 55 x645 + 70 x793 <= 0
 c59:  - 115 x54 + 25 x202 + 40 x350 + 50 x498 + 55 x646 + 70 x794 <= 0
 c60:  - 115 x55 + 25 x203 + 40 x351 + 50 x499 + 55 x647 + 70 x795 <= 0
 c61:  - 115 x56 + 25 x204 + 40 x352 + 50 x500 + 55 x648 + 70 x796 <= 0
 c62:  - 115 x57 + 25 x205 + 40 x353 + 50 x501 + 55 x649 + 70 x797 <= 0
 c63:  - 115 x58 + 25 x206 + 40 x354 + 50 x502 + 55 x650 + 70 x798 <= 0
 c64:  - 115 x59 + 25 x207 + 40 x355 + 50 x503 + 55 x651 + 70 x799 <= 0
 c65:  - 115 x60 + 25 x208 + 40 x356 + 50 x504 + 55 x652 + 70 x800 <= 0
 c66:  - 115 x61 + 25 x209 + 40 x357 + 50 x505 + 55 x653 + 70 x801 <= 0
 c67:  - 115 x62 + 25 x210 + 40 x358 + 50 x506 + 55 x654 + 70 x802 <= 0
 c68:  - 115 x63 + 25 x211 + 40 x359 + 50 x507 + 55 x655 + 70 x803 <= 0
 c69:  - 115 x64 + 25 x212 + 40 x360 + 50 x508 + 55 x656 + 70 x804 <= 0
 c70:  - 115 x65 + 25 x213 + 40 x361 + 50 x509 + 55 x657 + 70 x805 <= 0
 c71:  - 115 x66 + 25 x214 + 40 x362 + 50 x510 + 55 x658 + 70 x806 <= 0
 c72:  - 115 x67 + 25 x215 + 40 x363 + 50 x511 + 55 x659 + 70 x807 <= 0
 c73:  - 115 x68 + 25 x216 + 40 x364 + 50 x512 + 55 x660 + 70 x808 <= 0
 c74:  - 115 x69 + 25 x217 + 40 x365 + 50 x513 + 55 x661 + 70 x809 <= 0
 c75:  - 115 x70 + 25 x218 + 40 x366 + 50 x514 + 55 x662 + 70 x810 <= 0
 c76:  - 115 x71 + 25 x219 + 40 x367 + 50 x515 + 55 x663 + 70 x811 <= 0
 c77:  - 115 x72 + 25 x220 + 40 x368 + 50 x516 + 55 x664 + 70 x812 <= 0
 c78:  - 115 x73 + 25 x221 + 40 x369 + 50 x517 + 55 x665 + 70 x813 <= 0
 c79:  - 115 x74 + 25 x222 + 40 x370 + 50 x518 + 55 x666 + 70 x814 <= 0
 c80:  - 115 x75 + 25 x223 + 40 x371 + 50 x519 + 55 x667 + 70 x815 <= 0
 c81:  - 115 x76 + 25 x224 + 40 x372 + 50 x520 + 55 x668 + 70 x816 <= 0
 c82:  - 115 x77 + 25 x225 + 40 x373 + 50 x521 + 55 x669 + 70 x817 <= 0
 c83:  - 115 x78 + 25 x226 + 40 x374 + 50 x522 + 55 x670 + 70 x818 <= 0
 c84:  - 115 x79 + 25 x227 + 40 x375 + 50 x523 + 55 x671 + 70 x819 <= 0
 c85:  - 115 x80 + 25 x228 + 40 x376 + 50 x524 + 55 x672 + 70 x820 <= 0
 c86:  - 115 x81 + 25 x229 + 40 x377 + 50 x525 + 55 x673 + 70 x821 <= 0
 c87:  - 115 x82 + 25 x230 + 40 x378 + 50 x526 + 55 x674 + 70 x822 <= 0
 c88:  - 115 x83 + 25 x231 + 40 x379 + 50 x527 + 55 x675 + 70 x823 <= 0
 c89:  - 115 x84 + 25 x232 + 40 x380 + 50 x528 + 55 x676 + 70 x824 <= 0
 c90:  - 115 x85 + 25 x233 + 40 x381 + 50 x529 + 55 x677 + 70 x825 <= 0
 c91:  - 115 x86 + 25 x234 + 40 x382 + 50 x530 + 55 x678 + 70 x826 <= 0
 c92:  - 115 x87 + 25 x235 + 40 x383 + 50 x531 + 55 x679 + 70 x827 <= 0
 c93:  - 115 x88 + 25 x236 + 40 x384 + 50 x532 + 55 x680 + 70 x828 <= 0
 c94:  - 115 x89 + 25 x237 + 40 x385 + 50 x533 + 55 x681 + 70 x829 <= 0
 c95:  - 115 x90 + 25 x238 + 40 x386 + 50 x534 + 55 x682 + 70 x830 <= 0
 c96:  - 115 x91 + 25 x239 + 40 x387 + 50 x535 + 55 x683 + 70 x831 <= 0
 c97:  - 115 x92 + 25 x240 + 40 x388 + 50 x536 + 55 x684 + 70 x832 <= 0
 c98:  - 115 x93 + 25 x241 + 40 x389 + 50 x537 + 55 x685 + 70 x833 <= 0
 c99:  - 115 x94 + 25 x242 + 40 x390 + 50 x538 + 55 x686 + 70 x834 <= 0
 c100: - 115 x95 + 25 x243 + 40 x391 + 50 x539 + 55 x687 + 70 x835 <= 0
 c101: - 115 x96 + 25 x244 + 40 x392 + 50 x540 + 55 x688 + 70 x836 <= 0
 c102: - 115 x97 + 25 x245 + 40 x393 + 50 x541 + 55 x689 + 70 x837 <= 0
 c103: - 115 x98 + 25 x246 + 40 x394 + 50 x542 + 55 x690 + 70 x838 <= 0
 c104: - 115 x99 + 25 x247 + 40 x395 + 50 x543 + 55 x691 + 70 x839 <= 0
 c105: - 115 x100 + 25 x248 + 40 x396 + 50 x544 + 55 x692 + 70 x840 <= 0
 c106: - 115 x101 + 25 x249 + 40 x397 + 50 x545 + 55 x693 + 70 x841 <= 0
 c107: - 115 x102 + 25 x250 + 40 x398 + 50 x546 + 55 x694 + 70 x842 <= 0
 c108: - 115 x103 + 25 x251 + 40 x399 + 50 x547 + 55 x695 + 70 x843 <= 0
 c109: - 115 x104 + 25 x252 + 40 x400 + 50 x548 + 55 x696 + 70 x844 <= 0
 c110: - 115 x105 + 25 x253 + 40 x401 + 50 x549 + 55 x697 + 70 x845 <= 0
 c111: - 115 x106 + 25 x254 + 40 x402 + 50 x550 + 55 x698 + 70 x846 <= 0
 c112: - 115 x107 + 25 x255 + 40 x403 + 50 x551 + 55 x699 + 70 x847 <= 0
 c113: - 115 x108 + 25 x256 + 40 x404 + 50 x552 + 55 x700 + 70 x848 <= 0
 c114: - 115 x109 + 25 x257 + 40 x405 + 50 x553 + 55 x701 + 70 x849 <= 0
 c115: - 115 x110 + 25 x258 + 40 x406 + 50 x554 + 55 x702 + 70 x850 <= 0
 c116: - 115 x111 + 25 x259 + 40 x407 + 50 x555 + 55 x703 + 70 x851 <= 0
 c117: - 115 x112 + 25 x260 + 40 x408 + 50 x556 + 55 x704 + 70 x852 <= 0
 c118: - 115 x113 + 25 x261 + 40 x409 + 50 x557 + 55 x705 + 70 x853 <= 0
 c119: - 115 x114 + 25 x262 + 40 x410 + 50 x558 + 55 x706 + 70 x854 <= 0
 c120: - 115 x115 + 25 x263 + 40 x411 + 50 x559 + 55 x707 + 70 x855 <= 0
 c121: - 115 x116 + 25 x264 + 40 x412 + 50 x560 + 55 x708 + 70 x856 <= 0
 c122: - 115 x117 + 25 x265 + 40 x413 + 50 x561 + 55 x709 + 70 x857 <= 0
 c123: - 115 x118 + 25 x266 + 40 x414 + 50 x562 + 55 x710 + 70 x858 <= 0
 c124: - 115 x119 + 25 x267 + 40 x415 + 50 x563 + 55 x711 + 70 x859 <= 0
 c125: - 115 x120 + 25 x268 + 40 x416 + 50 x564 + 55 x712 + 70 x860 <= 0
 c126: - 115 x121 + 25 x269 + 40 x417 + 50 x565 + 55 x713 + 70 x861 <= 0
 c127: - 115 x122 + 25 x270 + 40 x418 + 50 x566 + 55 x714 + 70 x862 <= 0
 c128: - 115 x123 + 25 x271 + 40 x419 + 50 x567 + 55 x715 + 70 x863 <= 0
 c129: - 115 x124 + 25 x272 + 40 x420 + 50 x568 + 55 x716 + 70 x864 <= 0
 c130: - 115 x125 + 25 x273 + 40 x421 + 50 x569 + 55 x717 + 70 x865 <= 0
 c131: - 115 x126 + 25 x274 + 40 x422 + 50 x570 + 55 x718 + 70 x866 <= 0
 c132: - 115 x127 + 25 x275 + 40 x423 + 50 x571 + 55 x719 + 70 x867 <= 0
 c133: - 115 x128 + 25 x276 + 40 x424 + 50 x572 + 55 x720 + 70 x868 <= 0
 c134: - 115 x129 + 25 x277 + 40 x425 + 50 x573 + 55 x721 + 70 x869 <= 0
 c135: - 115 x130 + 25 x278 + 40 x426 + 50 x574 + 55 x722 + 70 x870 <= 0
 c136: - 115 x131 + 25 x279 + 40 x427 + 50 x575 + 55 x723 + 70 x871 <= 0
 c137: - 115 x132 + 25 x280 + 40 x428 + 50 x576 + 55 x724 + 70 x872 <= 0
 c138: - 115 x133 + 25 x281 + 40 x429 + 50 x577 + 55 x725 + 70 x873 <= 0
 c139: - 115 x134 + 25 x282 + 40 x430 + 50 x578 + 55 x726 + 70 x874 <= 0
 c140: - 115 x135 + 25 x283 + 40 x431 + 50 x579 + 55 x727 + 70 x875 <= 0
 c141: - 115 x136 + 25 x284 + 40 x432 + 50 x580 + 55 x728 + 70 x876 <= 0
 c142: - 115 x137 + 25 x285 + 40 x433 + 50 x581 + 55 x729 + 70 x877 <= 0
 c143: - 115 x138 + 25 x286 + 40 x434 + 50 x582 + 55 x730 + 70 x878 <= 0
 c144: - 115 x139 + 25 x287 + 40 x435 + 50 x583 + 55 x731 + 70 x879 <= 0
 c145: - 115 x140 + 25 x288 + 40 x436 + 50 x584 + 55 x732 + 70 x880 <= 0
 c146: - 115 x141 + 25 x289 + 40 x437 + 50 x585 + 55 x733 + 70 x881 <= 0
 c147: - 115 x142 + 25 x290 + 40 x438 + 50 x586 + 55 x734 + 70 x882 <= 0
 c148: - 115 x143 + 25 x291 + 40 x439 + 50 x587 + 55 x735 + 70 x883 <= 0
 c149: - 115 x144 + 25 x292 + 40 x440 + 50 x588 + 55 x736 + 70 x884 <= 0
 c150: - 115 x145 + 25 x293 + 40 x441 + 50 x589 + 55 x737 + 70 x885 <= 0
 c151: - 115 x146 + 25 x294 + 40 x442 + 50 x590 + 55 x738 + 70 x886 <= 0
 c152: - 115 x147 + 25 x295 + 40 x443 + 50 x591 + 55 x739 + 70 x887 <= 0
 c153: - 115 x148 + 25 x296 + 40 x444 + 50 x592 + 55 x740 + 70 x888 <= 0
Bounds
 0 <= x1 <= 1
 0 <= x2 <= 1
 0 <= x3 <= 1
 0 <= x4 <= 1
 0 <= x5 <= 1
 0 <= x6 <= 1
 0 <= x7 <= 1
 0 <= x8 <= 1
 0 <= x9 <= 1
 0 <= x10 <= 1
 0 <= x11 <= 1
 0 <= x12 <= 1
 0 <= x13 <= 1
 0 <= x14 <= 1
 0 <= x15 <= 1
 0 <= x16 <= 1
 0 <= x17 <= 1
 0 <= x18 <= 1
 0 <= x19 <= 1
 0 <= x20 <= 1
 0 <= x21 <= 1
 0 <= x22 <= 1
 0 <= x23 <= 1
 0 <= x24 <= 1
 0 <= x25 <= 1
 0 <= x26 <= 1
 0 <= x27 <= 1
 0 <= x28 <= 1
 0 <= x29 <= 1
 0 <= x30 <= 1
 0 <= x31 <= 1
 0 <= x32 <= 1
 0 <= x33 <= 1
 0 <= x34 <= 1
 0 <= x35 <= 1
 0 <= x36 <= 1
 0 <= x37 <= 1
 0 <= x38 <= 1
 0 <= x39 <= 1
 0 <= x40 <= 1
 0 <= x41 <= 1
 0 <= x42 <= 1
 0 <= x43 <= 1
 0 <= x44 <= 1
 0 <= x45 <= 1
 0 <= x46 <= 1
 0 <= x47 <= 1
 0 <= x48 <= 1
 0 <= x49 <= 1
 0 <= x50 <= 1
 0 <= x51 <= 1
 0 <= x52 <= 1
 0 <= x53 <= 1
 0 <= x54 <= 1
 0 <= x55 <= 1
 0 <= x56 <= 1
 0 <= x57 <= 1
 0 <= x58 <= 1
 0 <= x59 <= 1
 0 <= x60 <= 1
 0 <= x61 <= 1
 0 <= x62 <= 1
 0 <= x63 <= 1
 0 <= x64 <= 1
 0 <= x65 <= 1
 0 <= x66 <= 1
 0 <= x67 <= 1
 0 <= x68 <= 1
 0 <= x69 <= 1
 0 <= x70 <= 1
 0 <= x71 <= 1
 0 <= x72 <= 1
 0 <= x73 <= 1
 0 <= x74 <= 1
 0 <= x75 <= 1
 0 <= x76 <= 1
 0 <= x77 <= 1
 0 <= x78 <= 1
 0 <= x79 <= 1
 0 <= x80 <= 1
 0 <= x81 <= 1
 0 <= x82 <= 1
 0 <= x83 <= 1
 0 <= x84 <= 1
 0 <= x85 <= 1
 0 <= x86 <= 1
 0 <= x87 <= 1
 0 <= x88 <= 1
 0 <= x89 <= 1
 0 <= x90 <= 1
 0 <= x91 <= 1
 0 <= x92 <= 1
 0 <= x93 <= 1
 0 <= x94 <= 1
 0 <= x95 <= 1
 0 <= x96 <= 1
 0 <= x97 <= 1
 0 <= x98 <= 1
 0 <= x99 <= 1
 0 <= x100 <= 1
 0 <= x101 <= 1
 0 <= x102 <= 1
 0 <= x103 <= 1
 0 <= x104 <= 1
 0 <= x105 <= 1
 0 <= x106 <= 1
 0 <= x107 <= 1
 0 <= x108 <= 1
 0 <= x109 <= 1
 0 <= x110 <= 1
 0 <= x111 <= 1
 0 <= x112 <= 1
 0 <= x113 <= 1
 0 <= x114 <= 1
 0 <= x115 <= 1
 0 <= x116 <= 1
 0 <= x117 <= 1
 0 <= x118 <= 1
 0 <= x119 <= 1
 0 <= x120 <= 1
 0 <= x121 <= 1
 0 <= x122 <= 1
 0 <= x123 <= 1
 0 <= x124 <= 1
 0 <= x125 <= 1
 0 <= x126 <= 1
 0 <= x127 <= 1
 0 <= x128 <= 1
 0 <= x129 <= 1
 0 <= x130 <= 1
 0 <= x131 <= 1
 0 <= x132 <= 1
 0 <= x133 <= 1
 0 <= x134 <= 1
 0 <= x135 <= 1
 0 <= x136 <= 1
 0 <= x137 <= 1
 0 <= x138 <= 1
 0 <= x139 <= 1
 0 <= x140 <= 1
 0 <= x141 <= 1
 0 <= x142 <= 1
 0 <= x143 <= 1
 0 <= x144 <= 1
 0 <= x145 <= 1
 0 <= x146 <= 1
 0 <= x147 <= 1
 0 <= x148 <= 1
      x149 >= 0
      x150 >= 0
      x151 >= 0
      x152 >= 0
      x153 >= 0
      x154 >= 0
      x155 >= 0
      x156 >= 0
      x157 >= 0
      x158 >= 0
      x159 >= 0
      x160 >= 0
      x161 >= 0
      x162 >= 0
      x163 >= 0
      x164 >= 0
      x165 >= 0
      x166 >= 0
      x167 >= 0
      x168 >= 0
      x169 >= 0
      x170 >= 0
      x171 >= 0
      x172 >= 0
      x173 >= 0
      x174 >= 0
      x175 >= 0
      x176 >= 0
      x177 >= 0
      x178 >= 0
      x179 >= 0
      x180 >= 0
      x181 >= 0
      x182 >= 0
      x183 >= 0
      x184 >= 0
      x185 >= 0
      x186 >= 0
      x187 >= 0
      x188 >= 0
      x189 >= 0
      x190 >= 0
      x191 >= 0
      x192 >= 0
      x193 >= 0
      x194 >= 0
      x195 >= 0
      x196 >= 0
      x197 >= 0
      x198 >= 0
      x199 >= 0
      x200 >= 0
      x201 >= 0
      x202 >= 0
      x203 >= 0
      x204 >= 0
      x205 >= 0
      x206 >= 0
      x207 >= 0
      x208 >= 0
      x209 >= 0
      x210 >= 0
      x211 >= 0
      x212 >= 0
      x213 >= 0
      x214 >= 0
      x215 >= 0
      x216 >= 0
      x217 >= 0
      x218 >= 0
      x219 >= 0
      x220 >= 0
      x221 >= 0
      x222 >= 0
      x223 >= 0
      x224 >= 0
      x225 >= 0
      x226 >= 0
      x227 >= 0
      x228 >= 0
      x229 >= 0
      x230 >= 0
      x231 >= 0
      x232 >= 0
      x233 >= 0
      x234 >= 0
      x235 >= 0
      x236 >= 0
      x237 >= 0
      x238 >= 0
      x239 >= 0
      x240 >= 0
      x241 >= 0
      x242 >= 0
      x243 >= 0
      x244 >= 0
      x245 >= 0
      x246 >= 0
      x247 >= 0
      x248 >= 0
      x249 >= 0
      x250 >= 0
      x251 >= 0
      x252 >= 0
      x253 >= 0
      x254 >= 0
      x255 >= 0
      x256 >= 0
      x257 >= 0
      x258 >= 0
      x259 >= 0
      x260 >= 0
      x261 >= 0
      x262 >= 0
      x263 >= 0
      x264 >= 0
      x265 >= 0
      x266 >= 0
      x267 >= 0
      x268 >= 0
      x269 >= 0
      x270 >= 0
      x271 >= 0
      x272 >= 0
      x273 >= 0
      x274 >= 0
      x275 >= 0
      x276 >= 0
      x277 >= 0
      x278 >= 0
      x279 >= 0
      x280 >= 0
      x281 >= 0
      x282 >= 0
      x283 >= 0
      x284 >= 0
      x285 >= 0
      x286 >= 0
      x287 >= 0
      x288 >= 0
      x289 >= 0
      x290 >= 0
      x291 >= 0
      x292 >= 0
      x293 >= 0
      x294 >= 0
      x295 >= 0
      x296 >= 0
      x297 >= 0
      x298 >= 0
      x299 >= 0
      x300 >= 0
      x301 >= 0
      x302 >= 0
      x303 >= 0
      x304 >= 0
      x305 >= 0
      x306 >= 0
      x307 >= 0
      x308 >= 0
      x309 >= 0
      x310 >= 0
      x311 >= 0
      x312 >= 0
      x313 >= 0
      x314 >= 0
      x315 >= 0
      x316 >= 0
      x317 >= 0
      x318 >= 0
      x319 >= 0
      x320 >= 0
      x321 >= 0
      x322 >= 0
      x323 >= 0
      x324 >= 0
      x325 >= 0
      x326 >= 0
      x327 >= 0
      x328 >= 0
      x329 >= 0
      x330 >= 0
      x331 >= 0
      x332 >= 0
      x333 >= 0
      x334 >= 0
      x335 >= 0
      x336 >= 0
      x337 >= 0
      x338 >= 0
      x339 >= 0
      x340 >= 0
      x341 >= 0
      x342 >= 0
      x343 >= 0
      x344 >= 0
      x345 >= 0
      x346 >= 0
      x347 >= 0
      x348 >= 0
      x349 >= 0
      x350 >= 0
      x351 >= 0
      x352 >= 0
      x353 >= 0
      x354 >= 0
      x355 >= 0
      x356 >= 0
      x357 >= 0
      x358 >= 0
      x359 >= 0
      x360 >= 0
      x361 >= 0
      x362 >= 0
      x363 >= 0
      x364 >= 0
      x365 >= 0
      x366 >= 0
      x367 >= 0
      x368 >= 0
      x369 >= 0
      x370 >= 0
      x371 >= 0
      x372 >= 0
      x373 >= 0
      x374 >= 0
      x375 >= 0
      x376 >= 0
      x377 >= 0
      x378 >= 0
      x379 >= 0
      x380 >= 0
      x381 >= 0
      x382 >= 0
      x383 >= 0
      x384 >= 0
      x385 >= 0
      x386 >= 0
      x387 >= 0
      x388 >= 0
      x389 >= 0
      x390 >= 0
      x391 >= 0
      x392 >= 0
      x393 >= 0
      x394 >= 0
      x395 >= 0
      x396 >= 0
      x397 >= 0
      x398 >= 0
      x399 >= 0
      x400 >= 0
      x401 >= 0
      x402 >= 0
      x403 >= 0
      x404 >= 0
      x405 >= 0
      x406 >= 0
      x407 >= 0
      x408 >= 0
      x409 >= 0
      x410 >= 0
      x411 >= 0
      x412 >= 0
      x413 >= 0
      x414 >= 0
      x415 >= 0
      x416 >= 0
      x417 >= 0
      x418 >= 0
      x419 >= 0
      x420 >= 0
      x421 >= 0
      x422 >= 0
      x423 >= 0
      x424 >= 0
      x425 >= 0
      x426 >= 0
      x427 >= 0
      x428 >= 0
      x429 >= 0
      x430 >= 0
      x431 >= 0
      x432 >= 0
      x433 >= 0
      x434 >= 0
      x435 >= 0
      x436 >= 0
      x437 >= 0
      x438 >= 0
      x439 >= 0
      x440 >= 0
      x441 >= 0
      x442 >= 0
      x443 >= 0
      x444 >= 0
      x445 >= 0
      x446 >= 0
      x447 >= 0
      x448 >= 0
      x449 >= 0
      x450 >= 0
      x451 >= 0
      x452 >= 0
      x453 >= 0
      x454 >= 0
      x455 >= 0
      x456 >= 0
      x457 >= 0
      x458 >= 0
      x459 >= 0
      x460 >= 0
      x461 >= 0
      x462 >= 0
      x463 >= 0
      x464 >= 0
      x465 >= 0
      x466 >= 0
      x467 >= 0
      x468 >= 0
      x469 >= 0
      x470 >= 0
      x471 >= 0
      x472 >= 0
      x473 >= 0
      x474 >= 0
      x475 >= 0
      x476 >= 0
      x477 >= 0
      x478 >= 0
      x479 >= 0
      x480 >= 0
      x481 >= 0
      x482 >= 0
      x483 >= 0
      x484 >= 0
      x485 >= 0
      x486 >= 0
      x487 >= 0
      x488 >= 0
      x489 >= 0
      x490 >= 0
      x491 >= 0
      x492 >= 0
      x493 >= 0
      x494 >= 0
      x495 >= 0
      x496 >= 0
      x497 >= 0
      x498 >= 0
      x499 >= 0
      x500 >= 0
      x501 >= 0
      x502 >= 0
      x503 >= 0
      x504 >= 0
      x505 >= 0
      x506 >= 0
      x507 >= 0
      x508 >= 0
      x509 >= 0
      x510 >= 0
      x511 >= 0
      x512 >= 0
      x513 >= 0
      x514 >= 0
      x515 >= 0
      x516 >= 0
      x517 >= 0
      x518 >= 0
      x519 >= 0
      x520 >= 0
      x521 >= 0
      x522 >= 0
      x523 >= 0
      x524 >= 0
      x525 >= 0
      x526 >= 0
      x527 >= 0
      x528 >= 0
      x529 >= 0
      x530 >= 0
      x531 >= 0
      x532 >= 0
      x533 >= 0
      x534 >= 0
      x535 >= 0
      x536 >= 0
      x537 >= 0
      x538 >= 0
      x539 >= 0
      x540 >= 0
      x541 >= 0
      x542 >= 0
      x543 >= 0
      x544 >= 0
      x545 >= 0
      x546 >= 0
      x547 >= 0
      x548 >= 0
      x549 >= 0
      x550 >= 0
      x551 >= 0
      x552 >= 0
      x553 >= 0
      x554 >= 0
      x555 >= 0
      x556 >= 0
      x557 >= 0
      x558 >= 0
      x559 >= 0
      x560 >= 0
      x561 >= 0
      x562 >= 0
      x563 >= 0
      x564 >= 0
      x565 >= 0
      x566 >= 0
      x567 >= 0
      x568 >= 0
      x569 >= 0
      x570 >= 0
      x571 >= 0
      x572 >= 0
      x573 >= 0
      x574 >= 0
      x575 >= 0
      x576 >= 0
      x577 >= 0
      x578 >= 0
      x579 >= 0
      x580 >= 0
      x581 >= 0
      x582 >= 0
      x583 >= 0
      x584 >= 0
      x585 >= 0
      x586 >= 0
      x587 >= 0
      x588 >= 0
      x589 >= 0
      x590 >= 0
      x591 >= 0
      x592 >= 0
      x593 >= 0
      x594 >= 0
      x595 >= 0
      x596 >= 0
      x597 >= 0
      x598 >= 0
      x599 >= 0
      x600 >= 0
      x601 >= 0
      x602 >= 0
      x603 >= 0
      x604 >= 0
      x605 >= 0
      x606 >= 0
      x607 >= 0
      x608 >= 0
      x609 >= 0
      x610 >= 0
      x611 >= 0
      x612 >= 0
      x613 >= 0
      x614 >= 0
      x615 >= 0
      x616 >= 0
      x617 >= 0
      x618 >= 0
      x619 >= 0
      x620 >= 0
      x621 >= 0
      x622 >= 0
      x623 >= 0
      x624 >= 0
      x625 >= 0
      x626 >= 0
      x627 >= 0
      x628 >= 0
      x629 >= 0
      x630 >= 0
      x631 >= 0
      x632 >= 0
      x633 >= 0
      x634 >= 0
      x635 >= 0
      x636 >= 0
      x637 >= 0
      x638 >= 0
      x639 >= 0
      x640 >= 0
      x641 >= 0
      x642 >= 0
      x643 >= 0
      x644 >= 0
      x645 >= 0
      x646 >= 0
      x647 >= 0
      x648 >= 0
      x649 >= 0
      x650 >= 0
      x651 >= 0
      x652 >= 0
      x653 >= 0
      x654 >= 0
      x655 >= 0
      x656 >= 0
      x657 >= 0
      x658 >= 0
      x659 >= 0
      x660 >= 0
      x661 >= 0
      x662 >= 0
      x663 >= 0
      x664 >= 0
      x665 >= 0
      x666 >= 0
      x667 >= 0
      x668 >= 0
      x669 >= 0
      x670 >= 0
      x671 >= 0
      x672 >= 0
      x673 >= 0
      x674 >= 0
      x675 >= 0
      x676 >= 0
      x677 >= 0
      x678 >= 0
      x679 >= 0
      x680 >= 0
      x681 >= 0
      x682 >= 0
      x683 >= 0
      x684 >= 0
      x685 >= 0
      x686 >= 0
      x687 >= 0
      x688 >= 0
      x689 >= 0
      x690 >= 0
      x691 >= 0
      x692 >= 0
      x693 >= 0
      x694 >= 0
      x695 >= 0
      x696 >= 0
      x697 >= 0
      x698 >= 0
      x699 >= 0
      x700 >= 0
      x701 >= 0
      x702 >= 0
      x703 >= 0
      x704 >= 0
      x705 >= 0
      x706 >= 0
      x707 >= 0
      x708 >= 0
      x709 >= 0
      x710 >= 0
      x711 >= 0
      x712 >= 0
      x713 >= 0
      x714 >= 0
      x715 >= 0
      x716 >= 0
      x717 >= 0
      x718 >= 0
      x719 >= 0
      x720 >= 0
      x721 >= 0
      x722 >= 0
      x723 >= 0
      x724 >= 0
      x725 >= 0
      x726 >= 0
      x727 >= 0
      x728 >= 0
      x729 >= 0
      x730 >= 0
      x731 >= 0
      x732 >= 0
      x733 >= 0
      x734 >= 0
      x735 >= 0
      x736 >= 0
      x737 >= 0
      x738 >= 0
      x739 >= 0
      x740 >= 0
      x741 >= 0
      x742 >= 0
      x743 >= 0
      x744 >= 0
      x745 >= 0
      x746 >= 0
      x747 >= 0
      x748 >= 0
      x749 >= 0
      x750 >= 0
      x751 >= 0
      x752 >= 0
      x753 >= 0
      x754 >= 0
      x755 >= 0
      x756 >= 0
      x757 >= 0
      x758 >= 0
      x759 >= 0
      x760 >= 0
      x761 >= 0
      x762 >= 0
      x763 >= 0
      x764 >= 0
      x765 >= 0
      x766 >= 0
      x767 >= 0
      x768 >= 0
      x769 >= 0
      x770 >= 0
      x771 >= 0
      x772 >= 0
      x773 >= 0
      x774 >= 0
      x775 >= 0
      x776 >= 0
      x777 >= 0
      x778 >= 0
      x779 >= 0
      x780 >= 0
      x781 >= 0
      x782 >= 0
      x783 >= 0
      x784 >= 0
      x785 >= 0
      x786 >= 0
      x787 >= 0
      x788 >= 0
      x789 >= 0
      x790 >= 0
      x791 >= 0
      x792 >= 0
      x793 >= 0
      x794 >= 0
      x795 >= 0
      x796 >= 0
      x797 >= 0
      x798 >= 0
      x799 >= 0
      x800 >= 0
      x801 >= 0
      x802 >= 0
      x803 >= 0
      x804 >= 0
      x805 >= 0
      x806 >= 0
      x807 >= 0
      x808 >= 0
      x809 >= 0
      x810 >= 0
      x811 >= 0
      x812 >= 0
      x813 >= 0
      x814 >= 0
      x815 >= 0
      x816 >= 0
      x817 >= 0
      x818 >= 0
      x819 >= 0
      x820 >= 0
      x821 >= 0
      x822 >= 0
      x823 >= 0
      x824 >= 0
      x825 >= 0
      x826 >= 0
      x827 >= 0
      x828 >= 0
      x829 >= 0
      x830 >= 0
      x831 >= 0
      x832 >= 0
      x833 >= 0
      x834 >= 0
      x835 >= 0
      x836 >= 0
      x837 >= 0
      x838 >= 0
      x839 >= 0
      x840 >= 0
      x841 >= 0
      x842 >= 0
      x843 >= 0
      x844 >= 0
      x845 >= 0
      x846 >= 0
      x847 >= 0
      x848 >= 0
      x849 >= 0
      x850 >= 0
      x851 >= 0
      x852 >= 0
      x853 >= 0
      x854 >= 0
      x855 >= 0
      x856 >= 0
      x857 >= 0
      x858 >= 0
      x859 >= 0
      x860 >= 0
      x861 >= 0
      x862 >= 0
      x863 >= 0
      x864 >= 0
      x865 >= 0
      x866 >= 0
      x867 >= 0
      x868 >= 0
      x869 >= 0
      x870 >= 0
      x871 >= 0
      x872 >= 0
      x873 >= 0
      x874 >= 0
      x875 >= 0
      x876 >= 0
      x877 >= 0
      x878 >= 0
      x879 >= 0
      x880 >= 0
      x881 >= 0
      x882 >= 0
      x883 >= 0
      x884 >= 0
      x885 >= 0
      x886 >= 0
      x887 >= 0
      x888 >= 0
Binaries
 x1  x2  x3  x4  x5  x6  x7  x8  x9  x10  x11  x12  x13  x14  x15  x16  x17 
 x18  x19  x20  x21  x22  x23  x24  x25  x26  x27  x28  x29  x30  x31  x32 
 x33  x34  x35  x36  x37  x38  x39  x40  x41  x42  x43  x44  x45  x46  x47 
 x48  x49  x50  x51  x52  x53  x54  x55  x56  x57  x58  x59  x60  x61  x62 
 x63  x64  x65  x66  x67  x68  x69  x70  x71  x72  x73  x74  x75  x76  x77 
 x78  x79  x80  x81  x82  x83  x84  x85  x86  x87  x88  x89  x90  x91  x92 
 x93  x94  x95  x96  x97  x98  x99  x100  x101  x102  x103  x104  x105  x106 
 x107  x108  x109  x110  x111  x112  x113  x114  x115  x116  x117  x118  x119 
 x120  x121  x122  x123  x124  x125  x126  x127  x128  x129  x130  x131  x132 
 x133  x134  x135  x136  x137  x138  x139  x140  x141  x142  x143  x144  x145 
 x146  x147  x148 
Generals
 x149  x150  x151  x152  x153  x154  x155  x156  x157  x158  x159  x160  x161 
 x162  x163  x164  x165  x166  x167  x168  x169  x170  x171  x172  x173  x174 
 x175  x176  x177  x178  x179  x180  x181  x182  x183  x184  x185  x186  x187 
 x188  x189  x190  x191  x192  x193  x194  x195  x196  x197  x198  x199  x200 
 x201  x202  x203  x204  x205  x206  x207  x208  x209  x210  x211  x212  x213 
 x214  x215  x216  x217  x218  x219  x220  x221  x222  x223  x224  x225  x226 
 x227  x228  x229  x230  x231  x232  x233  x234  x235  x236  x237  x238  x239 
 x240  x241  x242  x243  x244  x245  x246  x247  x248  x249  x250  x251  x252 
 x253  x254  x255  x256  x257  x258  x259  x260  x261  x262  x263  x264  x265 
 x266  x267  x268  x269  x270  x271  x272  x273  x274  x275  x276  x277  x278 
 x279  x280  x281  x282  x283  x284  x285  x286  x287  x288  x289  x290  x291 
 x292  x293  x294  x295  x296  x297  x298  x299  x300  x301  x302  x303  x304 
 x305  x306  x307  x308  x309  x310  x311  x312  x313  x314  x315  x316  x317 
 x318  x319  x320  x321  x322  x323  x324  x325  x326  x327  x328  x329  x330 
 x331  x332  x333  x334  x335  x336  x337  x338  x339  x340  x341  x342  x343 
 x344  x345  x346  x347  x348  x349  x350  x351  x352  x353  x354  x355  x356 
 x357  x358  x359  x360  x361  x362  x363  x364  x365  x366  x367  x368  x369 
 x370  x371  x372  x373  x374  x375  x376  x377  x378  x379  x380  x381  x382 
 x383  x384  x385  x386  x387  x388  x389  x390  x391  x392  x393  x394  x395 
 x396  x397  x398  x399  x400  x401  x402  x403  x404  x405  x406  x407  x408 
 x409  x410  x411  x412  x413  x414  x415  x416  x417  x418  x419  x420  x421 
 x422  x423  x424  x425  x426  x427  x428  x429  x430  x431  x432  x433  x434 
 x435  x436  x437  x438  x439  x440  x441  x442  x443  x444  x445  x446  x447 
 x448  x449  x450  x451  x452  x453  x454  x455  x456  x457  x458  x459  x460 
 x461  x462  x463  x464  x465  x466  x467  x468  x469  x470  x471  x472  x473 
 x474  x475  x476  x477  x478  x479  x480  x481  x482  x483  x484  x485  x486 
 x487  x488  x489  x490  x491  x492  x493  x494  x495  x496  x497  x498  x499 
 x500  x501  x502  x503  x504  x505  x506  x507  x508  x509  x510  x511  x512 
 x513  x514  x515  x516  x517  x518  x519  x520  x521  x522  x523  x524  x525 
 x526  x527  x528  x529  x530  x531  x532  x533  x534  x535  x536  x537  x538 
 x539  x540  x541  x542  x543  x544  x545  x546  x547  x548  x549  x550  x551 
 x552  x553  x554  x555  x556  x557  x558  x559  x560  x561  x562  x563  x564 
 x565  x566  x567  x568  x569  x570  x571  x572  x573  x574  x575  x576  x577 
 x578  x579  x580  x581  x582  x583  x584  x585  x586  x587  x588  x589  x590 
 x591  x592  x593  x594  x595  x596  x597  x598  x599  x600  x601  x602  x603 
 x604  x605  x606  x607  x608  x609  x610  x611  x612  x613  x614  x615  x616 
 x617  x618  x619  x620  x621  x622  x623  x624  x625  x626  x627  x628  x629 
 x630  x631  x632  x633  x634  x635  x636  x637  x638  x639  x640  x641  x642 
 x643  x644  x645  x646  x647  x648  x649  x650  x651  x652  x653  x654  x655 
 x656  x657  x658  x659  x660  x661  x662  x663  x664  x665  x666  x667  x668 
 x669  x670  x671  x672  x673  x674  x675  x676  x677  x678  x679  x680  x681 
 x682  x683  x684  x685  x686  x687  x688  x689  x690  x691  x692  x693  x694 
 x695  x696  x697  x698  x699  x700  x701  x702  x703  x704  x705  x706  x707 
 x708  x709  x710  x711  x712  x713  x714  x715  x716  x717  x718  x719  x720 
 x721  x722  x723  x724  x725  x726  x727  x728  x729  x730  x731  x732  x733 
 x734  x735  x736  x737  x738  x739  x740  x741  x742  x743  x744  x745  x746 
 x747  x748  x749  x750  x751  x752  x753  x754  x755  x756  x757  x758  x759 
 x760  x761  x762  x763  x764  x765  x766  x767  x768  x769  x770  x771  x772 
 x773  x774  x775  x776  x777  x778  x779  x780  x781  x782  x783  x784  x785 
 x786  x787  x788  x789  x790  x791  x792  x793  x794  x795  x796  x797  x798 
 x799  x800  x801  x802  x803  x804  x805  x806  x807  x808  x809  x810  x811 
 x812  x813  x814  x815  x816  x817  x818  x819  x820  x821  x822  x823  x824 
 x825  x826  x827  x828  x829  x830  x831  x832  x833  x834  x835  x836  x837 
 x838  x839  x840  x841  x842  x843  x844  x845  x846  x847  x848  x849  x850 
 x851  x852  x853  x854  x855  x856  x857  x858  x859  x860  x861  x862  x863 
 x864  x865  x866  x867  x868  x869  x870  x871  x872  x873  x874  x875  x876 
 x877  x878  x879  x880  x881  x882  x883  x884  x885  x886  x887  x888 
End
